set VV := 0 1 2 3 4 5 6 7 8 9 10 11 12 13 14 15 16 ;
set VS := 0 1 2 3 4 5 6 7 8 9 10 11 12 13 14 15 16 17 18 19 20 21 22 23 24 25 26 27 28 29 30 31 32 33 34 35 36 37 38 ;
param cv := 
0 11
1 13
2 12
3 19
4 13
5 13
6 11
7 23
8 21
9 24
10 25
11 19
12 18
13 18
14 23
15 14
16 15
;
param cs := 
0 20
1 29
2 30
3 27
4 39
5 23
6 36
7 37
8 23
9 34
10 36
11 25
12 22
13 38
14 37
15 39
16 23
17 28
18 26
19 30
20 35
21 33
22 32
23 29
24 32
25 34
26 31
27 34
28 33
29 40
30 29
31 36
32 29
33 37
34 38
35 23
36 32
37 27
38 25
;
param bv:	 0 1 2 3 4 5 6 7 8 9 10 11 12 13 14 15 16 := 
		0 0 0 24 0 0 0 0 0 0 0 0 22 0 13 0 0 0 
		1 0 0 0 16 0 13 0 14 0 0 0 0 0 0 0 0 0 
		2 0 0 0 0 24 0 0 0 16 0 0 0 0 23 0 0 0 
		3 0 0 0 0 0 21 0 0 0 0 0 18 0 0 0 0 10 
		4 0 0 0 0 0 0 18 0 0 0 0 0 0 0 25 0 0 
		5 0 0 0 0 0 0 0 0 0 0 0 16 18 0 0 0 0 
		6 0 0 0 0 0 0 0 0 0 0 0 0 0 0 10 0 0 
		7 0 0 0 0 0 0 0 0 0 0 0 0 0 0 0 0 0 
		8 0 0 0 0 0 0 0 0 0 18 0 0 0 0 0 25 0 
		9 0 0 0 0 0 0 0 0 0 0 0 10 0 0 0 24 11 
		10 0 0 0 0 0 0 0 0 0 0 0 0 0 10 0 0 0 
		11 0 0 0 0 0 0 0 0 0 0 0 0 12 0 0 0 0 
		12 0 0 0 0 0 0 0 0 0 0 0 0 0 0 0 0 25 
		13 0 0 0 0 0 0 0 0 0 0 0 0 0 0 0 0 0 
		14 0 0 0 0 0 0 0 0 0 0 0 0 0 0 0 0 0 
		15 0 0 0 0 0 0 0 0 0 0 0 0 0 0 0 0 24 
		16 0 0 0 0 0 0 0 0 0 0 0 0 0 0 0 0 0 
;
param bs:	 0 1 2 3 4 5 6 7 8 9 10 11 12 13 14 15 16 17 18 19 20 21 22 23 24 25 26 27 28 29 30 31 32 33 34 35 36 37 38 := 
		0 0 0 0 30 0 0 0 0 0 21 0 0 0 0 0 0 0 0 33 0 0 0 0 0 0 0 0 0 0 22 0 0 0 0 0 0 27 0 38 
		1 0 0 0 0 0 0 0 0 0 0 0 0 37 0 0 0 0 32 0 0 0 0 0 0 0 0 0 0 0 0 40 0 0 0 0 0 0 0 0 
		2 0 0 0 0 39 0 0 0 0 0 0 0 0 0 0 0 0 0 0 0 38 0 0 0 0 0 0 21 0 0 0 0 0 0 26 0 0 0 0 
		3 30 0 0 0 0 0 23 0 0 0 34 0 22 0 0 0 0 0 25 0 39 0 0 0 0 0 0 0 0 0 0 0 0 0 0 0 0 0 0 
		4 0 0 39 0 0 0 0 0 0 0 0 24 0 0 0 0 0 0 0 0 0 0 0 0 0 0 0 0 0 0 0 0 0 0 0 0 0 0 0 
		5 0 0 0 0 0 0 0 0 0 0 0 21 0 0 0 0 0 21 0 32 0 0 0 29 0 0 0 0 0 0 0 0 0 0 0 0 29 0 0 
		6 0 0 0 23 0 0 0 0 0 0 28 0 0 0 0 0 0 0 0 0 0 20 0 31 0 21 0 0 0 0 0 0 0 0 0 0 0 0 0 
		7 0 0 0 0 0 0 0 0 0 0 0 0 0 0 26 0 0 0 0 0 0 0 0 0 0 0 31 0 0 0 27 0 0 0 0 0 0 0 0 
		8 0 0 0 0 0 0 0 0 0 0 0 0 0 0 0 0 0 0 25 0 22 0 0 0 0 0 0 0 0 0 0 0 0 0 0 0 0 0 0 
		9 21 0 0 0 0 0 0 0 0 0 0 0 20 0 0 23 0 0 0 20 0 0 0 0 0 0 0 0 0 0 0 0 0 0 35 40 0 0 0 
		10 0 0 0 34 0 0 28 0 0 0 0 0 0 0 0 0 0 0 0 0 0 0 0 0 0 0 0 0 0 0 0 0 0 0 0 0 0 0 0 
		11 0 0 0 0 24 21 0 0 0 0 0 0 0 0 0 0 0 0 0 0 0 0 0 0 34 0 27 0 40 0 0 0 36 0 0 38 0 0 0 
		12 0 37 0 22 0 0 0 0 0 20 0 0 0 0 0 0 0 0 0 0 0 0 0 0 0 0 0 0 0 0 0 0 23 0 0 0 0 0 0 
		13 0 0 0 0 0 0 0 0 0 0 0 0 0 0 0 0 39 0 0 0 0 0 0 0 0 0 0 0 0 0 0 0 0 0 0 0 0 0 0 
		14 0 0 0 0 0 0 0 26 0 0 0 0 0 0 0 0 0 0 0 0 0 0 0 0 0 0 0 0 0 0 0 0 0 0 0 0 0 0 0 
		15 0 0 0 0 0 0 0 0 0 23 0 0 0 0 0 0 0 0 0 0 0 0 0 0 0 0 0 0 0 0 31 0 0 0 0 0 0 0 0 
		16 0 0 0 0 0 0 0 0 0 0 0 0 0 39 0 0 0 0 0 0 0 0 0 0 0 0 0 0 0 0 0 0 0 0 0 23 0 0 0 
		17 0 32 0 0 0 21 0 0 0 0 0 0 0 0 0 0 0 0 0 0 0 0 0 0 32 0 0 0 0 0 0 0 0 0 0 0 0 0 0 
		18 33 0 0 25 0 0 0 0 25 0 0 0 0 0 0 0 0 0 0 28 0 38 24 0 0 0 0 0 0 0 0 0 0 0 0 0 0 0 0 
		19 0 0 0 0 0 32 0 0 0 20 0 0 0 0 0 0 0 0 28 0 0 0 24 35 0 0 0 0 0 0 0 0 0 0 0 0 36 22 0 
		20 0 0 38 39 0 0 0 0 22 0 0 0 0 0 0 0 0 0 0 0 0 22 0 0 0 0 0 0 0 0 0 0 0 25 28 40 0 0 0 
		21 0 0 0 0 0 0 20 0 0 0 0 0 0 0 0 0 0 0 38 0 22 0 0 0 0 0 0 0 0 0 0 0 0 0 0 0 0 0 0 
		22 0 0 0 0 0 0 0 0 0 0 0 0 0 0 0 0 0 0 24 24 0 0 0 0 0 0 0 0 29 0 0 0 0 24 0 38 0 25 0 
		23 0 0 0 0 0 29 31 0 0 0 0 0 0 0 0 0 0 0 0 35 0 0 0 0 0 0 0 0 0 0 0 37 0 0 0 35 0 27 0 
		24 0 0 0 0 0 0 0 0 0 0 0 34 0 0 0 0 0 32 0 0 0 0 0 0 0 0 0 0 0 0 0 0 30 0 0 0 0 0 0 
		25 0 0 0 0 0 0 21 0 0 0 0 0 0 0 0 0 0 0 0 0 0 0 0 0 0 0 0 0 0 20 0 21 0 0 0 0 31 0 0 
		26 0 0 0 0 0 0 0 31 0 0 0 27 0 0 0 0 0 0 0 0 0 0 0 0 0 0 0 0 0 0 0 0 0 30 33 0 0 0 0 
		27 0 0 21 0 0 0 0 0 0 0 0 0 0 0 0 0 0 0 0 0 0 0 0 0 0 0 0 0 0 0 38 0 0 0 0 0 0 0 37 
		28 0 0 0 0 0 0 0 0 0 0 0 40 0 0 0 0 0 0 0 0 0 0 29 0 0 0 0 0 0 36 0 0 0 0 0 0 0 0 0 
		29 22 0 0 0 0 0 0 0 0 0 0 0 0 0 0 0 0 0 0 0 0 0 0 0 0 20 0 0 36 0 0 0 0 0 0 0 0 0 0 
		30 0 40 0 0 0 0 0 27 0 0 0 0 0 0 0 31 0 0 0 0 0 0 0 0 0 0 0 38 0 0 0 0 0 0 0 0 0 35 0 
		31 0 0 0 0 0 0 0 0 0 0 0 0 0 0 0 0 0 0 0 0 0 0 0 37 0 21 0 0 0 0 0 0 33 0 0 0 0 0 0 
		32 0 0 0 0 0 0 0 0 0 0 0 36 23 0 0 0 0 0 0 0 0 0 0 0 30 0 0 0 0 0 0 33 0 0 0 0 0 0 0 
		33 0 0 0 0 0 0 0 0 0 0 0 0 0 0 0 0 0 0 0 0 25 0 24 0 0 0 30 0 0 0 0 0 0 0 0 0 0 39 0 
		34 0 0 26 0 0 0 0 0 0 35 0 0 0 0 0 0 0 0 0 0 28 0 0 0 0 0 33 0 0 0 0 0 0 0 0 0 0 0 0 
		35 0 0 0 0 0 0 0 0 0 40 0 38 0 0 0 0 23 0 0 0 40 0 38 35 0 0 0 0 0 0 0 0 0 0 0 0 0 0 0 
		36 27 0 0 0 0 29 0 0 0 0 0 0 0 0 0 0 0 0 0 36 0 0 0 0 0 31 0 0 0 0 0 0 0 0 0 0 0 0 0 
		37 0 0 0 0 0 0 0 0 0 0 0 0 0 0 0 0 0 0 0 22 0 0 25 27 0 0 0 0 0 0 35 0 0 39 0 0 0 0 0 
		38 38 0 0 0 0 0 0 0 0 0 0 0 0 0 0 0 0 0 0 0 0 0 0 0 0 0 0 37 0 0 0 0 0 0 0 0 0 0 0 
;
